(set-logic ALL)
(declare-fun seed0_T_1 () Int)
(declare-fun seed0_T_2 () Bool)
(declare-fun seed0_var_0xINPUT_29305 () String)
(assert (and (or (>= seed0_T_1 (str.len seed0_var_0xINPUT_29305)) (distinct (div seed0_T_1 seed0_T_1) (* seed0_T_1 seed0_T_1))) (or (= seed0_T_2 (= seed0_T_1 0)) (xor (str.suffixof (str.++ seed0_var_0xINPUT_29305 "hz8PgFoQMXBV7T6vt4m") (str.++ seed0_var_0xINPUT_29305 "Z9dg57uYQwbcn0J")) (str.contains (str.++ seed0_var_0xINPUT_29305 "Fhi") (str.++ seed0_var_0xINPUT_29305 "QmaSA2F")))) (or seed0_T_2 (or (< (mod seed0_T_1 seed0_T_1) (div seed0_T_1 seed0_T_1)) (< (mod seed0_T_1 seed0_T_1) (+ seed0_T_1 371))))))
(check-sat)
(exit)